c ind 1 2 3 4 5 6 7 8 9 10 11 12 13 14 15 16 17 18 19 20 0
p cnf 203 267               
-4 25 0
-7 25 0
4 7 -25 0
-1 -25 28 0
-28 31 0
-5 26 0
-8 26 0
5 8 -26 0
-2 -26 29 0
-29 31 0
-6 27 0
-9 27 0
6 9 -27 0
-3 -27 30 0
-30 31 0
-31 -147 0
-4 -7 21 0
-21 24 0
-5 -8 22 0
-22 24 0
-6 -9 23 0
-23 24 0
-24 -147 0
-11 25 -41 0
41 -50 0
25 -35 0
2 26 -33 0
33 -35 0
-12 35 -42 0
42 -50 0
25 -36 0
3 27 -34 0
34 -36 0
-13 36 -43 0
43 -50 0
26 -37 0
1 25 -32 0
32 -37 0
-14 37 -44 0
44 -50 0
-15 26 -45 0
45 -50 0
26 -38 0
34 -38 0
-16 38 -46 0
46 -50 0
27 -39 0
32 -39 0
-17 39 -47 0
47 -50 0
27 -40 0
33 -40 0
-18 40 -48 0
48 -50 0
-19 27 -49 0
49 -50 0
-10 50 -51 0
51 -147 0
-11 52 0
-12 52 0
-13 52 0
-52 55 0
-14 53 0
-15 53 0
-16 53 0
-53 55 0
-17 54 0
-18 54 0
-19 54 0
-54 55 0
-55 10 -56 0
56 -147 0
-11 78 0
-12 -14 59 0
-59 78 0
-13 -17 62 0
-62 78 0
-78 114 0
-12 87 0
-11 -12 57 0
-57 79 0
-12 -15 60 0
-60 79 0
-13 -18 63 0
-63 79 0
-79 87 0
-14 89 0
-11 -14 65 0
-65 81 0
-14 -15 67 0
-67 81 0
-16 -17 69 0
-69 81 0
-81 89 0
-87 -89 95 0
-95 114 0
-13 88 0
-11 -13 58 0
-58 80 0
-12 -16 61 0
-61 80 0
-13 -19 64 0
-64 80 0
-80 88 0
-17 91 0
-11 -17 72 0
-72 84 0
-14 -18 74 0
-74 84 0
-17 -19 76 0
-76 84 0
-84 91 0
-88 -91 98 0
-98 114 0
-114 -25 -129 0
129 -132 0
-15 82 0
-59 82 0
-16 -18 70 0
-70 82 0
-82 118 0
-95 118 0
-16 90 0
-13 -14 66 0
-66 83 0
-15 -16 68 0
-68 83 0
-16 -19 71 0
-71 83 0
-83 90 0
-18 92 0
-12 -17 73 0
-73 85 0
-15 -18 75 0
-75 85 0
-18 -19 77 0
-77 85 0
-85 92 0
-90 -92 106 0
-106 118 0
-118 -26 -130 0
130 -132 0
-19 86 0
-62 86 0
-70 86 0
-86 122 0
-98 122 0
-106 122 0
-122 -27 -131 0
131 -132 0
-10 132 -133 0
133 -147 0
20 -135 0
-20 10 -134 0
134 -135 0
135 -146 0
11 -136 0
20 -136 0
12 -137 0
20 -137 0
13 -138 0
20 -138 0
14 -139 0
20 -139 0
15 -140 0
20 -140 0
16 -141 0
20 -141 0
17 -142 0
20 -142 0
18 -143 0
20 -143 0
19 -144 0
20 -144 0
136 137 138 139 140 141 142 143 144 -145 0
145 -146 0
146 -147 0
-1 2 -148 0
148 -174 0
-1 -2 149 0
1 2 149 0
-2 2 149 0
-4 5 -150 0
-149 150 -151 0
151 -174 0
-4 -5 152 0
4 5 152 0
-5 5 152 0
-149 -152 153 0
-7 8 -154 0
-153 154 -155 0
155 -174 0
-7 -8 156 0
7 8 156 0
-8 8 156 0
-153 -156 157 0
-11 15 -158 0
-157 158 -159 0
159 -174 0
-11 -15 160 0
11 15 160 0
-15 15 160 0
-157 -160 161 0
-12 14 -162 0
-161 162 -163 0
163 -174 0
-12 -14 164 0
12 14 164 0
-14 14 164 0
-161 -164 165 0
-13 16 -166 0
-165 166 -167 0
167 -174 0
-13 -16 168 0
13 16 168 0
-16 16 168 0
-165 -168 169 0
-17 18 -170 0
-169 170 -171 0
171 -174 0
174 -202 0
-2 3 -175 0
175 -201 0
-2 -3 176 0
2 3 176 0
-3 3 176 0
-5 6 -177 0
-176 177 -178 0
178 -201 0
-5 -6 179 0
5 6 179 0
-6 6 179 0
-176 -179 180 0
-8 9 -181 0
-180 181 -182 0
182 -201 0
-8 -9 183 0
8 9 183 0
-9 9 183 0
-180 -183 184 0
-12 13 -185 0
-184 185 -186 0
186 -201 0
-12 -13 187 0
12 13 187 0
-13 13 187 0
-184 -187 188 0
-14 17 -189 0
-188 189 -190 0
190 -201 0
-14 -17 191 0
14 17 191 0
-17 17 191 0
-188 -191 192 0
-15 19 -193 0
-192 193 -194 0
194 -201 0
-15 -19 195 0
15 19 195 0
-19 19 195 0
-192 -195 196 0
-16 18 -197 0
-196 197 -198 0
198 -201 0
201 -202 0
147 0
202 0
